c Arquivo convertido de cubic_700.txt
p edge 700 1050
e 0 411
e 0 476
e 0 497
e 1 223
e 1 289
e 1 352
e 2 615
e 2 671
e 2 689
e 3 79
e 3 92
e 3 396
e 4 141
e 4 417
e 4 632
e 5 7
e 5 92
e 5 496
e 6 39
e 6 139
e 6 172
e 7 103
e 7 420
e 8 392
e 8 665
e 8 668
e 9 38
e 9 221
e 9 471
e 10 144
e 10 145
e 10 572
e 11 54
e 11 209
e 11 373
e 12 105
e 12 333
e 12 497
e 13 205
e 13 206
e 13 328
e 14 57
e 14 213
e 14 220
e 15 248
e 15 260
e 15 326
e 16 571
e 16 597
e 16 690
e 17 381
e 17 441
e 17 691
e 18 379
e 18 468
e 18 519
e 19 176
e 19 180
e 19 625
e 20 25
e 20 309
e 20 600
e 21 44
e 21 216
e 21 292
e 22 37
e 22 40
e 22 352
e 23 51
e 23 79
e 23 247
e 24 239
e 24 318
e 24 557
e 25 36
e 25 646
e 26 304
e 26 429
e 26 646
e 27 365
e 27 397
e 27 630
e 28 316
e 28 368
e 28 603
e 29 421
e 29 446
e 29 626
e 30 293
e 30 339
e 30 519
e 31 83
e 31 366
e 31 550
e 32 43
e 32 174
e 32 594
e 33 350
e 33 397
e 33 491
e 34 361
e 34 391
e 34 472
e 35 73
e 35 106
e 35 663
e 36 57
e 36 65
e 37 254
e 37 534
e 38 224
e 38 334
e 39 489
e 39 572
e 40 165
e 40 614
e 41 123
e 41 567
e 41 656
e 42 47
e 42 191
e 42 668
e 43 573
e 43 696
e 44 117
e 44 656
e 45 174
e 45 414
e 45 570
e 46 489
e 46 542
e 46 659
e 47 218
e 47 367
e 48 130
e 48 477
e 48 513
e 49 215
e 49 232
e 49 565
e 50 332
e 50 511
e 50 653
e 51 411
e 51 568
e 52 76
e 52 470
e 52 480
e 53 147
e 53 211
e 53 498
e 54 384
e 54 654
e 55 102
e 55 272
e 55 574
e 56 79
e 56 495
e 56 691
e 57 335
e 58 329
e 58 356
e 58 527
e 59 373
e 59 468
e 59 517
e 60 84
e 60 251
e 60 461
e 61 90
e 61 104
e 61 593
e 62 285
e 62 422
e 62 453
e 63 89
e 63 532
e 63 582
e 64 97
e 64 148
e 64 467
e 65 221
e 65 559
e 66 75
e 66 195
e 66 523
e 67 99
e 67 212
e 67 592
e 68 158
e 68 413
e 68 543
e 69 256
e 69 313
e 69 692
e 70 410
e 70 454
e 70 478
e 71 72
e 71 269
e 71 558
e 72 626
e 72 674
e 73 641
e 73 679
e 74 295
e 74 406
e 74 575
e 75 437
e 75 458
e 76 494
e 76 687
e 77 100
e 77 208
e 77 508
e 78 115
e 78 378
e 78 639
e 80 114
e 80 165
e 80 358
e 81 339
e 81 343
e 81 569
e 82 225
e 82 402
e 82 623
e 83 231
e 83 474
e 84 337
e 84 618
e 85 446
e 85 629
e 85 643
e 86 587
e 86 658
e 86 673
e 87 354
e 87 516
e 87 695
e 88 201
e 88 456
e 88 500
e 89 280
e 89 426
e 90 291
e 90 420
e 91 134
e 91 343
e 91 551
e 92 218
e 93 145
e 93 228
e 93 262
e 94 274
e 94 338
e 94 541
e 95 536
e 95 603
e 95 686
e 96 198
e 96 601
e 96 613
e 97 126
e 97 698
e 98 285
e 98 420
e 98 530
e 99 318
e 99 546
e 100 540
e 100 552
e 101 195
e 101 223
e 101 356
e 102 321
e 102 367
e 103 197
e 103 425
e 104 172
e 104 688
e 105 238
e 105 389
e 106 345
e 106 680
e 107 307
e 107 325
e 107 632
e 108 234
e 108 637
e 108 663
e 109 445
e 109 555
e 109 640
e 110 353
e 110 521
e 110 683
e 111 301
e 111 467
e 111 682
e 112 266
e 112 443
e 112 575
e 113 135
e 113 366
e 113 667
e 114 199
e 114 680
e 115 239
e 115 685
e 116 175
e 116 574
e 116 624
e 117 140
e 117 531
e 118 168
e 118 216
e 118 450
e 119 141
e 119 344
e 119 655
e 120 320
e 120 438
e 120 552
e 121 247
e 121 340
e 121 584
e 122 145
e 122 253
e 122 512
e 123 551
e 123 647
e 124 202
e 124 442
e 124 585
e 125 538
e 125 585
e 125 604
e 126 412
e 126 472
e 127 188
e 127 292
e 127 547
e 128 142
e 128 255
e 128 533
e 129 227
e 129 291
e 129 378
e 130 309
e 130 618
e 131 239
e 131 303
e 131 623
e 132 157
e 132 304
e 132 585
e 133 394
e 133 492
e 133 586
e 134 559
e 134 653
e 135 442
e 135 676
e 136 467
e 136 476
e 136 489
e 137 196
e 137 369
e 137 451
e 138 349
e 138 361
e 138 695
e 139 249
e 139 650
e 140 185
e 140 535
e 141 169
e 142 266
e 142 647
e 143 286
e 143 351
e 143 357
e 144 615
e 144 648
e 146 216
e 146 483
e 146 655
e 147 259
e 147 462
e 148 264
e 148 507
e 149 220
e 149 433
e 149 550
e 150 295
e 150 510
e 150 644
e 151 179
e 151 401
e 151 671
e 152 215
e 152 246
e 152 598
e 153 155
e 153 355
e 153 549
e 154 196
e 154 201
e 154 583
e 155 423
e 155 601
e 156 466
e 156 541
e 156 584
e 157 277
e 157 539
e 158 299
e 158 647
e 159 322
e 159 479
e 159 484
e 160 407
e 160 415
e 160 582
e 161 391
e 161 398
e 161 616
e 162 532
e 162 622
e 162 672
e 163 322
e 163 382
e 163 430
e 164 177
e 164 207
e 164 416
e 165 662
e 166 303
e 166 388
e 166 454
e 167 431
e 167 483
e 167 666
e 168 213
e 168 418
e 169 259
e 169 464
e 170 204
e 170 359
e 170 623
e 171 250
e 171 327
e 171 458
e 172 514
e 173 281
e 173 524
e 173 525
e 174 212
e 175 262
e 175 405
e 176 509
e 176 535
e 177 240
e 177 362
e 178 435
e 178 455
e 178 505
e 179 309
e 179 524
e 180 260
e 180 697
e 181 210
e 181 566
e 181 587
e 182 207
e 182 249
e 182 544
e 183 251
e 183 259
e 183 311
e 184 188
e 184 424
e 184 579
e 185 215
e 185 236
e 186 261
e 186 333
e 186 579
e 187 273
e 187 279
e 187 556
e 188 425
e 189 311
e 189 568
e 189 693
e 190 288
e 190 375
e 190 443
e 191 196
e 191 383
e 192 242
e 192 306
e 192 520
e 193 223
e 193 616
e 193 645
e 194 222
e 194 402
e 194 610
e 195 298
e 197 345
e 197 356
e 198 495
e 198 654
e 199 398
e 199 430
e 200 448
e 200 665
e 200 674
e 201 254
e 202 555
e 202 609
e 203 295
e 203 414
e 203 470
e 204 298
e 204 360
e 205 355
e 205 592
e 206 408
e 206 657
e 207 649
e 208 335
e 208 537
e 209 370
e 209 393
e 210 280
e 210 690
e 211 371
e 211 653
e 212 612
e 213 488
e 214 372
e 214 530
e 214 645
e 217 315
e 217 554
e 217 562
e 218 502
e 219 412
e 219 595
e 219 607
e 220 450
e 221 447
e 222 513
e 222 588
e 224 230
e 224 614
e 225 260
e 225 435
e 226 332
e 226 495
e 226 514
e 227 304
e 227 419
e 228 354
e 228 394
e 229 362
e 229 516
e 229 563
e 230 277
e 230 656
e 231 609
e 231 635
e 232 305
e 232 452
e 233 375
e 233 565
e 233 662
e 234 369
e 234 558
e 235 432
e 235 448
e 235 630
e 236 267
e 236 559
e 237 376
e 237 594
e 237 660
e 238 433
e 238 485
e 240 400
e 240 688
e 241 377
e 241 405
e 241 629
e 242 619
e 242 627
e 243 319
e 243 348
e 243 560
e 244 269
e 244 386
e 244 510
e 245 439
e 245 553
e 245 560
e 246 276
e 246 449
e 247 545
e 248 560
e 248 614
e 249 395
e 250 277
e 250 432
e 251 576
e 252 390
e 252 667
e 252 689
e 253 298
e 253 663
e 254 380
e 255 303
e 255 496
e 256 461
e 256 482
e 257 399
e 257 496
e 257 598
e 258 362
e 258 593
e 258 687
e 261 522
e 261 527
e 262 352
e 263 278
e 263 288
e 263 665
e 264 619
e 264 693
e 265 266
e 265 283
e 265 317
e 267 493
e 267 604
e 268 333
e 268 452
e 268 652
e 269 286
e 270 305
e 270 518
e 270 584
e 271 377
e 271 471
e 271 654
e 272 390
e 272 529
e 273 393
e 273 526
e 274 365
e 274 503
e 275 493
e 275 564
e 275 638
e 276 670
e 276 692
e 278 460
e 278 549
e 279 456
e 279 569
e 280 502
e 281 398
e 281 600
e 282 641
e 282 645
e 282 697
e 283 346
e 283 435
e 284 347
e 284 417
e 284 479
e 285 386
e 286 561
e 287 466
e 287 537
e 287 642
e 288 379
e 289 390
e 289 394
e 290 340
e 290 448
e 290 680
e 291 586
e 292 345
e 293 297
e 293 501
e 294 372
e 294 486
e 294 678
e 296 413
e 296 565
e 296 606
e 297 465
e 297 474
e 299 464
e 299 542
e 300 310
e 300 447
e 300 651
e 301 336
e 301 504
e 302 512
e 302 520
e 302 582
e 305 346
e 306 364
e 306 689
e 307 461
e 307 485
e 308 440
e 308 528
e 308 531
e 310 419
e 310 609
e 311 511
e 312 323
e 312 591
e 312 606
e 313 325
e 313 487
e 314 459
e 314 479
e 314 509
e 315 457
e 315 545
e 316 387
e 316 527
e 317 328
e 317 572
e 318 515
e 319 620
e 319 670
e 320 360
e 320 482
e 321 499
e 321 635
e 322 381
e 323 544
e 323 671
e 324 425
e 324 537
e 324 643
e 325 415
e 326 547
e 326 635
e 327 374
e 327 697
e 328 389
e 329 429
e 329 441
e 330 376
e 330 422
e 330 487
e 331 354
e 331 525
e 331 561
e 332 599
e 334 357
e 334 408
e 335 642
e 336 465
e 336 619
e 337 451
e 337 544
e 338 605
e 338 638
e 339 586
e 340 434
e 341 372
e 341 405
e 341 546
e 342 471
e 342 639
e 342 686
e 343 564
e 344 453
e 344 533
e 346 606
e 347 536
e 347 601
e 348 530
e 348 568
e 349 404
e 349 480
e 350 431
e 350 515
e 351 391
e 351 449
e 353 445
e 353 641
e 355 613
e 357 522
e 358 535
e 358 620
e 359 605
e 359 633
e 360 684
e 361 687
e 363 366
e 363 463
e 363 577
e 364 434
e 364 599
e 365 490
e 367 627
e 368 436
e 368 486
e 369 533
e 370 431
e 370 490
e 371 556
e 371 669
e 373 564
e 374 424
e 374 649
e 375 650
e 376 591
e 377 505
e 378 437
e 379 588
e 380 393
e 380 577
e 381 566
e 382 408
e 382 419
e 383 413
e 383 423
e 384 403
e 384 505
e 385 446
e 385 492
e 385 681
e 386 529
e 387 462
e 387 548
e 388 417
e 388 519
e 389 611
e 392 460
e 392 631
e 395 400
e 395 412
e 396 556
e 396 561
e 397 557
e 399 553
e 399 698
e 400 649
e 401 516
e 401 634
e 402 588
e 403 532
e 403 554
e 404 410
e 404 607
e 406 409
e 406 493
e 407 514
e 407 628
e 409 554
e 409 640
e 410 526
e 411 591
e 414 604
e 415 437
e 416 482
e 416 486
e 418 488
e 418 528
e 421 642
e 421 659
e 422 628
e 423 589
e 424 677
e 426 592
e 426 624
e 427 430
e 427 597
e 427 664
e 428 540
e 428 602
e 428 618
e 429 549
e 432 458
e 433 658
e 434 529
e 436 524
e 436 550
e 438 487
e 438 650
e 439 659
e 439 667
e 440 543
e 440 610
e 441 611
e 442 501
e 443 660
e 444 596
e 444 622
e 444 685
e 445 595
e 447 462
e 449 638
e 450 628
e 451 593
e 452 612
e 453 581
e 454 515
e 455 473
e 455 481
e 456 499
e 457 511
e 457 574
e 459 631
e 459 693
e 460 684
e 463 491
e 463 681
e 464 589
e 465 539
e 466 563
e 468 590
e 469 543
e 469 640
e 469 683
e 470 583
e 472 538
e 473 669
e 473 692
e 474 696
e 475 573
e 475 610
e 475 657
e 476 648
e 477 534
e 477 551
e 478 646
e 478 682
e 480 596
e 481 621
e 481 630
e 483 615
e 484 608
e 484 677
e 485 673
e 488 577
e 490 580
e 491 699
e 492 696
e 494 521
e 494 658
e 497 506
e 498 634
e 498 699
e 499 520
e 500 578
e 500 598
e 501 674
e 502 673
e 503 660
e 503 670
e 504 600
e 504 608
e 506 558
e 506 575
e 507 587
e 507 695
e 508 567
e 508 633
e 509 570
e 510 578
e 512 664
e 513 617
e 517 596
e 517 672
e 518 625
e 518 664
e 521 685
e 522 602
e 523 608
e 523 644
e 525 657
e 526 686
e 528 675
e 531 590
e 534 599
e 536 676
e 538 634
e 539 639
e 540 571
e 541 617
e 542 699
e 545 637
e 546 661
e 547 611
e 548 629
e 548 675
e 552 683
e 553 679
e 555 590
e 557 668
e 562 632
e 562 698
e 563 652
e 566 666
e 567 617
e 569 616
e 570 691
e 571 694
e 573 676
e 576 622
e 576 672
e 578 605
e 579 627
e 580 581
e 580 661
e 581 597
e 583 652
e 589 633
e 594 669
e 595 675
e 602 677
e 603 651
e 607 662
e 612 682
e 613 679
e 620 678
e 621 636
e 621 648
e 624 643
e 625 655
e 626 666
e 631 636
e 636 661
e 637 678
e 644 694
e 651 684
e 681 688
e 690 694
